10                                                                                                                           
3       4       2                                                                                                            
0       2       2                                                                                                            
0       3       5                                                                                                            
3       7       0                                                                                                            
2       5       0                                                                                                            
1       8       5                                                                                                            
2       4       2                                                                                                            
1       8       2                                                                                                            
2       9       2                                                                                                            
3       6       0                                                                                                            
8 1 8 6 5 3 9 6 6 2 128                                                                                                      
0 2 0 1 4 7 5 4 7 4 131                                                                                                      
2 4 4 3 8 3 5 3 1 0 123                                                                                                      
3 9 1 7 4 7 7 9 7 0 131                                                                                                      
                                                                                                                            